min:x1+x2+x3+x4+x5+x6+x7+x8+x9+x10+x11+x12+x13+x14+x15+x16+x17+x18+x19+x20+x21+x22+x23+x24+x25+x26+x27+x28+x29+x30+x31+x32+x33+x34+x35+x36+x37+x38+x39+x40+x41+x42+x43+x44+x45+x46+x47+x48+x49+x50;
    A1+B1=1;
    A2+B2=1;
    A3+B3=1;
    A4+B4=1;
    A5+B5=1;
    A6+B6=1;
    A7+B7=1;
    A8+B8=1;
    A9+B9=1;
    A10+B10=1;
    A11+B11=1;
    A12+B12=1;
    A13+B13=1;
    A14+B14=1;
    A15+B15=1;
    A16+B16=1;
    A17+B17=1;
    A18+B18=1;
    A19+B19=1;
    A20+B20=1;
    A21+B21=1;
    A22+B22=1;
    A23+B23=1;
    A24+B24=1;
    A25+B25=1;
    A26+B26=1;
    A27+B27=1;
    A28+B28=1;
    A29+B29=1;
    A30+B30=1;
    A31+B31=1;
    A32+B32=1;
    A33+B33=1;
    A34+B34=1;
    A35+B35=1;
    A36+B36=1;
    A37+B37=1;
    A38+B38=1;
    A39+B39=1;
    A40+B40=1;
    A41+B41=1;
    A42+B42=1;
    A43+B43=1;
    A44+B44=1;
    A45+B45=1;
    A46+B46=1;
    A47+B47=1;
    A48+B48=1;
    A49+B49=1;
    A50+B50=1;
    A51+B51=1;
    A52+B52=1;
    A53+B53=1;
    A54+B54=1;
    A55+B55=1;
    A56+B56=1;
    A57+B57=1;
    A58+B58=1;
    A59+B59=1;
    A60+B60=1;
    A61+B61=1;
    A62+B62=1;
    A63+B63=1;
    A64+B64=1;
    A65+B65=1;
    A66+B66=1;
    A67+B67=1;
    A68+B68=1;
    A69+B69=1;
    A70+B70=1;
    A71+B71=1;
    A72+B72=1;
    A73+B73=1;
    A74+B74=1;
    A75+B75=1;
    A76+B76=1;
    A77+B77=1;
    A78+B78=1;
    A79+B79=1;
    A80+B80=1;
    A81+B81=1;
    A82+B82=1;
    A83+B83=1;
    A84+B84=1;
    A85+B85=1;
    A86+B86=1;
    A87+B87=1;
    A88+B88=1;
    A89+B89=1;
    A90+B90=1;
    A91+B91=1;
    A92+B92=1;
    A93+B93=1;
    A94+B94=1;
    A95+B95=1;
    A96+B96=1;
    A97+B97=1;
    A98+B98=1;
    A99+B99=1;
    A100+B100=1;
    A101+B101=1;
    A102+B102=1;
    A103+B103=1;
    A104+B104=1;
    A105+B105=1;
    A106+B106=1;
    A107+B107=1;
    A108+B108=1;
    A109+B109=1;
    A110+B110=1;
    A111+B111=1;
    A112+B112=1;
    A113+B113=1;
    A114+B114=1;
    A115+B115=1;
    A116+B116=1;
    A117+B117=1;
    A118+B118=1;
    A119+B119=1;
    A120+B120=1;
    A121+B121=1;
    A122+B122=1;
    A123+B123=1;
    A124+B124=1;
    A125+B125=1;
    A126+B126=1;
    A127+B127=1;
    A128+B128=1;
    A129+B129=1;
    A130+B130=1;
    A131+B131=1;
    A132+B132=1;
    A133+B133=1;
    A134+B134=1;
    A135+B135=1;
    A136+B136=1;
    A137+B137=1;
    A138+B138=1;
    A139+B139=1;
    A140+B140=1;
    A141+B141=1;
    A142+B142=1;
    A143+B143=1;
    A144+B144=1;
    A145+B145=1;
    A146+B146=1;
    A147+B147=1;
    A148+B148=1;
    A149+B149=1;
    A150+B150=1;
    A151+B151=1;
    A152+B152=1;
    A153+B153=1;
    A154+B154=1;
    A155+B155=1;
    A156+B156=1;
    A157+B157=1;
    A158+B158=1;
    A159+B159=1;
    A160+B160=1;
    A161+B161=1;
    A162+B162=1;
    A163+B163=1;
    A164+B164=1;
    A165+B165=1;
    A166+B166=1;
    A167+B167=1;
    A168+B168=1;
    A169+B169=1;
    A170+B170=1;
    A171+B171=1;
    A172+B172=1;
    A173+B173=1;
    A174+B174=1;
    A175+B175=1;
    A176+B176=1;
    A177+B177=1;
    A178+B178=1;
    A179+B179=1;
    A180+B180=1;
    A181+B181=1;
    A182+B182=1;
    A183+B183=1;
    A184+B184=1;
    A185+B185=1;
    A186+B186=1;
    A187+B187=1;
    A188+B188=1;
    A189+B189=1;
    A190+B190=1;
    A191+B191=1;
    A192+B192=1;
    A193+B193=1;
    A194+B194=1;
    A195+B195=1;
    A196+B196=1;
    A197+B197=1;
    A198+B198=1;
    A199+B199=1;
    A200+B200=1;
    A201+B201=1;
    A202+B202=1;
    A203+B203=1;
    A204+B204=1;
    A205+B205=1;
    A206+B206=1;
    A207+B207=1;
    A208+B208=1;
    A209+B209=1;
    A210+B210=1;
    A211+B211=1;
    A212+B212=1;
    A213+B213=1;
    A214+B214=1;
    A215+B215=1;
    A216+B216=1;
    A217+B217=1;
    A218+B218=1;
    A219+B219=1;
    A220+B220=1;
    A221+B221=1;
    A222+B222=1;
    A223+B223=1;
    A224+B224=1;
    A225+B225=1;
    A226+B226=1;
    A227+B227=1;
    A228+B228=1;
    A229+B229=1;
    A230+B230=1;
    A231+B231=1;
    A232+B232=1;
    A233+B233=1;
    A234+B234=1;
    A235+B235=1;
    A236+B236=1;
    A237+B237=1;
    A238+B238=1;
    A239+B239=1;
    A240+B240=1;
    A241+B241=1;
    A242+B242=1;
    A243+B243=1;
    A244+B244=1;
    A245+B245=1;
    A246+B246=1;
    A247+B247=1;
    A248+B248=1;
    A249+B249=1;
    A250+B250=1;
    A251+B251=1;
    A252+B252=1;
    A253+B253=1;
    A254+B254=1;
    A255+B255=1;
    A256+B256=1;
    A257+B257=1;
    A258+B258=1;
    A259+B259=1;
    A260+B260=1;
    A261+B261=1;
    A262+B262=1;
    A263+B263=1;
    A264+B264=1;
    A265+B265=1;
    A266+B266=1;
    A267+B267=1;
    A268+B268=1;
    A269+B269=1;
    A270+B270=1;
    A271+B271=1;
    A272+B272=1;
    A273+B273=1;
    A274+B274=1;
    A275+B275=1;
    A276+B276=1;
    A277+B277=1;
    A278+B278=1;
    A279+B279=1;
    A280+B280=1;
    A281+B281=1;
    A282+B282=1;
    A283+B283=1;
    A284+B284=1;
    A285+B285=1;
    A286+B286=1;
    A287+B287=1;
    A288+B288=1;
    A289+B289=1;
    A290+B290=1;
    A291+B291=1;
    A292+B292=1;
    A293+B293=1;
    A294+B294=1;
    A295+B295=1;
    A296+B296=1;
    A297+B297=1;
    A298+B298=1;
    A299+B299=1;
    A300+B300=1;
    A301+B301=1;
    A302+B302=1;
    A303+B303=1;
    A304+B304=1;
    A305+B305=1;
    A306+B306=1;
    A307+B307=1;
    A308+B308=1;
    A309+B309=1;
    A310+B310=1;
    A311+B311=1;
    A312+B312=1;
    A313+B313=1;
    A314+B314=1;
    A315+B315=1;
    A316+B316=1;
    A317+B317=1;
    A318+B318=1;
    A319+B319=1;
    A320+B320=1;
    A321+B321=1;
    A322+B322=1;
    A323+B323=1;
    A324+B324=1;
    A325+B325=1;
    A326+B326=1;
    A327+B327=1;
    A328+B328=1;
    A329+B329=1;
    A330+B330=1;
    A331+B331=1;
    A332+B332=1;
    A333+B333=1;
    A334+B334=1;
    A335+B335=1;
    A336+B336=1;
    A337+B337=1;
    A338+B338=1;
    A339+B339=1;
    A340+B340=1;
    A341+B341=1;
    A342+B342=1;
    A343+B343=1;
    A344+B344=1;
    A345+B345=1;
    A346+B346=1;
    A347+B347=1;
    A348+B348=1;
    A349+B349=1;
    A350+B350=1;
    A351+B351=1;
    A352+B352=1;
    A353+B353=1;
    A354+B354=1;
    A355+B355=1;
    A356+B356=1;
    A357+B357=1;
    A358+B358=1;
    A359+B359=1;
    A360+B360=1;
    A361+B361=1;
    A362+B362=1;
    A363+B363=1;
    A364+B364=1;
    A365+B365=1;
    A366+B366=1;
    A367+B367=1;
    A368+B368=1;
    A369+B369=1;
    A370+B370=1;
    A371+B371=1;
    A372+B372=1;
    A373+B373=1;
    A374+B374=1;
    A375+B375=1;
    A376+B376=1;
    A377+B377=1;
    A378+B378=1;
    A379+B379=1;
    A380+B380=1;
    A381+B381=1;
    A382+B382=1;
    A383+B383=1;
    A384+B384=1;
    A385+B385=1;
    A386+B386=1;
    A387+B387=1;
    A388+B388=1;
    A389+B389=1;
    A390+B390=1;
    A391+B391=1;
    A392+B392=1;
    A393+B393=1;
    A394+B394=1;
    A395+B395=1;
    A396+B396=1;
    A397+B397=1;
    A398+B398=1;
    A399+B399=1;
    A400+B400=1;
    A401+B401=1;
    A402+B402=1;
    A403+B403=1;
    A404+B404=1;
    A405+B405=1;
    A406+B406=1;
    A407+B407=1;
    A408+B408=1;
    A409+B409=1;
    A410+B410=1;
    A411+B411=1;
    A412+B412=1;
    A413+B413=1;
    A414+B414=1;
    A415+B415=1;
    A416+B416=1;
    A417+B417=1;
    A418+B418=1;
    A419+B419=1;
    A420+B420=1;
    A421+B421=1;
    A422+B422=1;
    A423+B423=1;
    A424+B424=1;
    A425+B425=1;
    A426+B426=1;
    A427+B427=1;
    A428+B428=1;
    A429+B429=1;
    A430+B430=1;
    A431+B431=1;
    A432+B432=1;
    A433+B433=1;
    A434+B434=1;
    A435+B435=1;
    A436+B436=1;
    A437+B437=1;
    A438+B438=1;
    A439+B439=1;
    A440+B440=1;
    A441+B441=1;
    A442+B442=1;
    A443+B443=1;
    A444+B444=1;
    A445+B445=1;
    A446+B446=1;
    A447+B447=1;
    A448+B448=1;
    A449+B449=1;
    A450+B450=1;
    A451+B451=1;
    A452+B452=1;
    A453+B453=1;
    A454+B454=1;
    A455+B455=1;
    A456+B456=1;
    A457+B457=1;
    A458+B458=1;
    A459+B459=1;
    A460+B460=1;
    A461+B461=1;
    A462+B462=1;
    A463+B463=1;
    A464+B464=1;
    A465+B465=1;
    A466+B466=1;
    A467+B467=1;
    A468+B468=1;
    A469+B469=1;
    A470+B470=1;
    A471+B471=1;
    A472+B472=1;
    A473+B473=1;
    A474+B474=1;
    A475+B475=1;
    A476+B476=1;
    A477+B477=1;
    A478+B478=1;
    A479+B479=1;
    A480+B480=1;
    A481+B481=1;
    A482+B482=1;
    A483+B483=1;
    A484+B484=1;
    A485+B485=1;
    A486+B486=1;
    A487+B487=1;
    A488+B488=1;
    A489+B489=1;
    A490+B490=1;
    A491+B491=1;
    A492+B492=1;
    A493+B493=1;
    A494+B494=1;
    A495+B495=1;
    A496+B496=1;
    A497+B497=1;
    A498+B498=1;
    A499+B499=1;
    A500+B500=1;
    A501+B501=1;
    A502+B502=1;
    A503+B503=1;
    A504+B504=1;
    A505+B505=1;
    A506+B506=1;
    A507+B507=1;
    A508+B508=1;
    A509+B509=1;
    A510+B510=1;
    A511+B511=1;
    A512+B512=1;
    A513+B513=1;
    A514+B514=1;
    A515+B515=1;
    A516+B516=1;
    A517+B517=1;
    A518+B518=1;
    A519+B519=1;
    A520+B520=1;
    A521+B521=1;
    A522+B522=1;
    A523+B523=1;
    A524+B524=1;
    A525+B525=1;
    A526+B526=1;
    A527+B527=1;
    A528+B528=1;
    A529+B529=1;
    A530+B530=1;
    A531+B531=1;
    A532+B532=1;
    A533+B533=1;
    A534+B534=1;
    A535+B535=1;
    A536+B536=1;
    A537+B537=1;
    A538+B538=1;
    A539+B539=1;
    A540+B540=1;
    A541+B541=1;
    A542+B542=1;
    A543+B543=1;
    A544+B544=1;
    A545+B545=1;
    A546+B546=1;
    A547+B547=1;
    A548+B548=1;
    A549+B549=1;
    A550+B550=1;
    A551+B551=1;
    A552+B552=1;
    A553+B553=1;
    A554+B554=1;
    A555+B555=1;
    A556+B556=1;
    A557+B557=1;
    A558+B558=1;
    A559+B559=1;
    A560+B560=1;
    A561+B561=1;
    A562+B562=1;
    A563+B563=1;
    A564+B564=1;
    A565+B565=1;
    A566+B566=1;
    A567+B567=1;
    A568+B568=1;
    A569+B569=1;
    A570+B570=1;
    A571+B571=1;
    A572+B572=1;
    A573+B573=1;
    A574+B574=1;
    A575+B575=1;
    A576+B576=1;
    A577+B577=1;
    A578+B578=1;
    A579+B579=1;
    A580+B580=1;
    A581+B581=1;
    A582+B582=1;
    A583+B583=1;
    A584+B584=1;
    A585+B585=1;
    A586+B586=1;
    A587+B587=1;
    A588+B588=1;
    A589+B589=1;
    A590+B590=1;
    A591+B591=1;
    A592+B592=1;
    A593+B593=1;
    A594+B594=1;
    A595+B595=1;
    A596+B596=1;
    A597+B597=1;
    A598+B598=1;
    A599+B599=1;
    A600+B600=1;
    A601+B601=1;
    A602+B602=1;
    A603+B603=1;
    A604+B604=1;
    A605+B605=1;
    A606+B606=1;
    A607+B607=1;
    A608+B608=1;
    A609+B609=1;
    A610+B610=1;
    A611+B611=1;
    A612+B612=1;
    A613+B613=1;
    A614+B614=1;
    A615+B615=1;
    A616+B616=1;
    A617+B617=1;
    A618+B618=1;
    A619+B619=1;
    A620+B620=1;
    A621+B621=1;
    A622+B622=1;
    A623+B623=1;
    A624+B624=1;
    A625+B625=1;
    A626+B626=1;
    A627+B627=1;
    A628+B628=1;
    A629+B629=1;
    A630+B630=1;
    A631+B631=1;
    A632+B632=1;
    A633+B633=1;
    A634+B634=1;
    A635+B635=1;
    A636+B636=1;
    A637+B637=1;
    A638+B638=1;
    A639+B639=1;
    A640+B640=1;
    A641+B641=1;
    A642+B642=1;
    A643+B643=1;
    A644+B644=1;
    A645+B645=1;
    A646+B646=1;
    A647+B647=1;
    A648+B648=1;
    A649+B649=1;
    A650+B650=1;
    A651+B651=1;
    A652+B652=1;
    A653+B653=1;
    A654+B654=1;
    A655+B655=1;
    A656+B656=1;
    A657+B657=1;
    A658+B658=1;
    A659+B659=1;
    A660+B660=1;
    A661+B661=1;
    A662+B662=1;
    A663+B663=1;
    A664+B664=1;
    A665+B665=1;
    A666+B666=1;
    A667+B667=1;
    A668+B668=1;
    A669+B669=1;
    A670+B670=1;
    A671+B671=1;
    A672+B672=1;
    A673+B673=1;
    A674+B674=1;
    A675+B675=1;
    A676+B676=1;
    A677+B677=1;
    A678+B678=1;
    A679+B679=1;
    A680+B680=1;
    A681+B681=1;
    A682+B682=1;
    A683+B683=1;
    A684+B684=1;
    A685+B685=1;
    A686+B686=1;
    A687+B687=1;
    A688+B688=1;
    A689+B689=1;
    A690+B690=1;
    A691+B691=1;
    A692+B692=1;
    A693+B693=1;
    A694+B694=1;
    A695+B695=1;
    A696+B696=1;
    A697+B697=1;
    A698+B698=1;
    A699+B699=1;
    A700+B700=1;
    A701+B701=1;
    A702+B702=1;
    A703+B703=1;
    A704+B704=1;
    A705+B705=1;
    A706+B706=1;
    A707+B707=1;
    A708+B708=1;
    A709+B709=1;
    A710+B710=1;
    A711+B711=1;
    A712+B712=1;
    A713+B713=1;
    A714+B714=1;
    A715+B715=1;
    A1+A2+A3+A4+A5+A6+A7+A8+A9+A10+A11+A12+A13+A14+A15+A16+A17+A18+A19+A20+A21+A22+A23+A24+A25+A26+A27+1 x1>=1;
    B1+A28+A29+A30+A31+A32+A33+A34+A35+A36+A37+A38+A39+A40+A41+A42+A43+A44+A45+A46+A47+A48+A49+A50+A51+A52+A53+22 x2>=22;
    B28+A54+A55+A56+A57+A58+A59+A60+A61+A62+A63+A64+A65+A66+A67+A68+A69+A70+A71+A72+A73+A74+A75+A76+A77+A78+A79+A80+21 x3>=21;
    B2+A81+A82+A83+A84+A85+A86+A87+A88+A89+A90+A91+A92+A93+A94+A95+A96+A97+A98+A99+A100+A101+A102+A103+A104+A105+A106+A107+A108+A109+A110+A111+A112+A113+A114+9 x4>=9;
    B29+B54+B81+A115+A116+A117+A118+A119+A120+A121+A122+A123+A124+A125+A126+A127+A128+A129+A130+A131+A132+A133+1 x5>=1;
    B30+B55+B115+A134+A135+A136+A137+A138+A139+A140+A141+A142+A143+A144+A145+A146+A147+A148+A149+A150+A151+A152+A153+A154+A155+A156+1 x6>=1;
    B3+B31+B56+B82+B134+A157+A158+A159+A160+A161+A162+A163+A164+A165+A166+A167+A168+A169+A170+A171+A172+A173+A174+A175+A176+A177+A178+A179+A180+A181+A182+A183+A184+A185+34 x7>=34;
    B4+B32+B83+B116+B135+B157+A186+A187+A188+A189+A190+A191+A192+A193+A194+A195+A196+A197+A198+A199+A200+A201+A202+A203+A204+A205+A206+A207+27 x8>=27;
    B84+B158+A208+A209+A210+A211+A212+A213+A214+A215+A216+A217+A218+A219+A220+A221+A222+A223+A224+A225+A226+A227+A228+A229+A230+A231+13 x9>=13;
    B85+B136+A232+A233+A234+A235+A236+A237+A238+A239+A240+A241+A242+A243+A244+A245+A246+A247+A248+A249+A250+A251+A252+A253+A254+A255+A256+A257+A258+A259+A260+A261+15 x10>=15;
    B5+B57+B86+B159+B186+B208+B232+A262+A263+A264+A265+A266+A267+A268+A269+A270+A271+A272+A273+A274+A275+A276+A277+A278+A279+A280+A281+A282+A283+A284+A285+A286+A287+32 x11>=32;
    B33+B58+B137+B187+B262+A288+A289+A290+A291+A292+A293+A294+A295+A296+A297+A298+A299+A300+A301+A302+A303+A304+A305+A306+A307+A308+A309+24 x12>=24;
    B59+B87+B138+B160+B188+B233+B263+B288+A310+A311+A312+A313+A314+A315+A316+A317+A318+A319+A320+A321+A322+A323+A324+A325+A326+A327+A328+A329+A330+A331+23 x13>=23;
    B6+B34+B139+B161+B189+B209+B234+B264+B289+B310+A332+A333+A334+A335+A336+A337+A338+A339+A340+A341+A342+A343+A344+A345+A346+A347+A348+A349+A350+A351+A352+30 x14>=30;
    B35+B88+B162+B190+B235+B265+B311+A353+A354+A355+A356+A357+A358+A359+A360+A361+A362+A363+A364+7 x15>=7;
    B7+B60+B89+B117+B140+B163+B191+B210+B236+B290+B312+B332+A365+A366+A367+A368+A369+A370+A371+A372+A373+A374+A375+A376+A377+A378+A379+A380+A381+A382+A383+A384+14 x16>=14;
    B8+B61+B90+B141+B164+B266+B313+B333+A385+A386+A387+A388+A389+A390+A391+A392+A393+A394+A395+A396+A397+A398+A399+A400+A401+A402+A403+A404+A405+A406+A407+26 x17>=26;
    B36+B62+B91+B118+B314+B334+B365+B385+A408+A409+A410+A411+A412+A413+A414+A415+A416+A417+A418+A419+A420+A421+A422+3 x18>=3;
    B9+B37+B119+B165+B211+B237+B267+B315+B335+B386+B408+A423+A424+A425+A426+A427+A428+A429+A430+A431+A432+A433+A434+A435+A436+A437+A438+A439+14 x19>=14;
    B63+B92+B142+B166+B212+B238+B268+B291+B316+B353+B366+B387+B423+A440+A441+A442+A443+A444+A445+A446+A447+A448+A449+A450+A451+A452+A453+12 x20>=12;
    B64+B93+B143+B192+B213+B239+B317+B336+B367+B388+A454+A455+A456+A457+A458+A459+A460+A461+A462+A463+A464+A465+14 x21>=14;
    B10+B94+B120+B144+B167+B193+B240+B269+B292+B368+B389+B424+A466+A467+A468+A469+A470+A471+A472+A473+A474+A475+A476+A477+A478+A479+A480+A481+A482+29 x22>=29;
    B11+B38+B65+B95+B214+B241+B293+B318+B354+B390+B409+B440+A483+A484+A485+A486+A487+A488+A489+A490+A491+A492+A493+A494+A495+A496+A497+A498+27 x23>=27;
    B12+B39+B96+B242+B270+B337+B369+B441+B483+A499+A500+A501+A502+A503+A504+A505+A506+A507+A508+A509+A510+A511+A512+A513+A514+16 x24>=16;
    B13+B121+B145+B168+B194+B243+B294+B319+B355+B410+B425+B466+B499+A515+A516+A517+A518+A519+A520+A521+A522+A523+A524+A525+A526+A527+A528+2 x25>=2;
    B14+B40+B97+B146+B215+B244+B271+B295+B320+B411+B426+B442+B454+B484+B515+A529+A530+A531+A532+A533+A534+A535+A536+18 x26>=18;
    B15+B98+B122+B169+B195+B245+B272+B321+B338+B356+B370+B443+B455+B500+A537+A538+A539+A540+A541+A542+A543+A544+A545+A546+A547+A548+A549+A550+A551+A552+4 x27>=4;
    B41+B66+B99+B147+B196+B216+B246+B273+B296+B322+B371+B391+B412+B427+B444+B467+B485+B537+A553+A554+A555+A556+A557+A558+A559+A560+A561+A562+A563+A564+A565+A566+1 x28>=1;
    B42+B100+B170+B297+B323+B357+B392+B445+B538+B553+A567+A568+A569+A570+A571+A572+A573+A574+A575+A576+A577+A578+4 x29>=4;
    B43+B101+B123+B171+B217+B247+B274+B339+B372+B393+B413+B486+B516+B539+B554+B567+A579+A580+A581+A582+A583+A584+A585+A586+A587+A588+10 x30>=10;
    B16+B44+B67+B102+B172+B218+B248+B275+B298+B324+B373+B394+B414+B428+B468+B487+B517+B540+B555+B579+A589+A590+A591+A592+A593+A594+A595+A596+A597+A598+A599+A600+13 x31>=13;
    B45+B103+B148+B173+B197+B299+B340+B395+B429+B446+B469+B488+B501+B541+B556+B568+B580+B589+A601+A602+A603+A604+A605+A606+A607+A608+A609+A610+A611+A612+A613+13 x32>=13;
    B46+B68+B124+B174+B219+B276+B325+B341+B358+B374+B396+B447+B456+B470+B518+B557+B581+B590+B601+A614+A615+A616+A617+A618+A619+A620+A621+A622+A623+A624+A625+A626+A627+1 x33>=1;
    B17+B69+B104+B149+B175+B198+B249+B277+B300+B326+B375+B430+B448+B457+B471+B489+B502+B529+B542+B582+B614+A628+A629+A630+A631+A632+A633+A634+A635+A636+A637+A638+A639+17 x34>=17;
    B18+B47+B150+B220+B250+B278+B342+B397+B431+B472+B519+B543+B569+B583+B628+A640+A641+A642+A643+A644+A645+A646+A647+A648+A649+A650+A651+A652+26 x35>=26;
    B48+B70+B105+B176+B221+B251+B279+B343+B376+B415+B458+B473+B503+B520+B530+B570+B584+B615+B629+B640+A653+A654+A655+A656+A657+A658+A659+A660+6 x36>=6;
    B19+B71+B106+B125+B151+B177+B199+B252+B344+B359+B398+B416+B449+B459+B490+B504+B531+B544+B571+B591+B602+B616+B630+A661+A662+A663+A664+A665+A666+A667+A668+A669+A670+17 x37>=17;
    B49+B72+B178+B200+B222+B345+B360+B377+B417+B432+B460+B474+B505+B532+B572+B592+B603+B631+B641+B653+B661+A671+A672+A673+A674+A675+A676+A677+A678+28 x38>=28;
    B20+B50+B73+B152+B179+B201+B223+B253+B280+B301+B346+B378+B450+B533+B545+B558+B573+B593+B632+B642+B654+A679+A680+A681+A682+A683+A684+A685+14 x39>=14;
    B74+B126+B202+B224+B254+B281+B302+B379+B399+B418+B433+B451+B461+B475+B491+B506+B534+B546+B559+B585+B604+B617+B633+B643+B662+B679+A686+A687+A688+A689+4 x40>=4;
    B51+B107+B153+B203+B225+B255+B282+B327+B347+B400+B452+B462+B476+B492+B507+B521+B535+B547+B560+B574+B594+B618+B634+B644+B663+B671+A690+A691+A692+1 x41>=1;
    B21+B75+B108+B127+B154+B180+B204+B256+B283+B303+B380+B401+B434+B453+B477+B508+B522+B548+B575+B595+B605+B619+B635+B645+B655+B664+B680+B686+A693+A694+A695+A696+9 x42>=9;
    B22+B76+B128+B155+B181+B257+B304+B328+B361+B381+B402+B478+B493+B509+B523+B549+B596+B606+B620+B646+B656+B665+B672+B681+A697+A698+A699+A700+A701+23 x43>=23;
    B52+B77+B109+B129+B182+B205+B329+B348+B382+B403+B419+B435+B494+B586+B597+B607+B621+B647+B657+B666+B673+B682+B687+B690+B693+A702+A703+A704+19 x44>=19;
    B23+B110+B130+B156+B183+B226+B258+B284+B305+B330+B404+B463+B479+B495+B510+B524+B561+B608+B622+B658+B667+B674+B697+B702+A705+A706+A707+13 x45>=13;
    B24+B78+B111+B131+B184+B227+B259+B285+B306+B349+B362+B405+B436+B464+B480+B511+B525+B550+B562+B576+B598+B609+B623+B648+B668+B683+B688+B694+B698+A708+A709+4 x46>=4;
    B25+B53+B112+B132+B206+B228+B286+B307+B350+B363+B383+B420+B437+B496+B512+B526+B551+B563+B610+B624+B636+B649+B659+B675+B684+B699+B705+A710+A711+A712+21 x47>=21;
    B26+B79+B133+B185+B207+B229+B308+B351+B406+B438+B465+B481+B497+B513+B527+B564+B587+B599+B611+B625+B637+B650+B660+B669+B676+B685+B691+B695+B700+B703+B708+B710+A713+A714+26 x48>=26;
    B80+B113+B230+B260+B287+B309+B331+B352+B364+B384+B421+B482+B528+B536+B552+B565+B577+B600+B612+B626+B638+B651+B677+B689+B701+B706+B709+B711+B713+A715+16 x49>=16;
    B27+B114+B231+B261+B407+B422+B439+B498+B514+B566+B578+B588+B613+B627+B639+B652+B670+B678+B692+B696+B704+B707+B712+B714+B715+25 x50>=25;
bin A1,B1,A2,B2,A3,B3,A4,B4,A5,B5,A6,B6,A7,B7,A8,B8,A9,B9,A10,B10,A11,B11,A12,B12,A13,B13,A14,B14,A15,B15,A16,B16,A17,B17,A18,B18,A19,B19,A20,B20,A21,B21,A22,B22,A23,B23,A24,B24,A25,B25,A26,B26,A27,B27,A28,B28,A29,B29,A30,B30,A31,B31,A32,B32,A33,B33,A34,B34,A35,B35,A36,B36,A37,B37,A38,B38,A39,B39,A40,B40,A41,B41,A42,B42,A43,B43,A44,B44,A45,B45,A46,B46,A47,B47,A48,B48,A49,B49,A50,B50,A51,B51,A52,B52,A53,B53,A54,B54,A55,B55,A56,B56,A57,B57,A58,B58,A59,B59,A60,B60,A61,B61,A62,B62,A63,B63,A64,B64,A65,B65,A66,B66,A67,B67,A68,B68,A69,B69,A70,B70,A71,B71,A72,B72,A73,B73,A74,B74,A75,B75,A76,B76,A77,B77,A78,B78,A79,B79,A80,B80,A81,B81,A82,B82,A83,B83,A84,B84,A85,B85,A86,B86,A87,B87,A88,B88,A89,B89,A90,B90,A91,B91,A92,B92,A93,B93,A94,B94,A95,B95,A96,B96,A97,B97,A98,B98,A99,B99,A100,B100,A101,B101,A102,B102,A103,B103,A104,B104,A105,B105,A106,B106,A107,B107,A108,B108,A109,B109,A110,B110,A111,B111,A112,B112,A113,B113,A114,B114,A115,B115,A116,B116,A117,B117,A118,B118,A119,B119,A120,B120,A121,B121,A122,B122,A123,B123,A124,B124,A125,B125,A126,B126,A127,B127,A128,B128,A129,B129,A130,B130,A131,B131,A132,B132,A133,B133,A134,B134,A135,B135,A136,B136,A137,B137,A138,B138,A139,B139,A140,B140,A141,B141,A142,B142,A143,B143,A144,B144,A145,B145,A146,B146,A147,B147,A148,B148,A149,B149,A150,B150,A151,B151,A152,B152,A153,B153,A154,B154,A155,B155,A156,B156,A157,B157,A158,B158,A159,B159,A160,B160,A161,B161,A162,B162,A163,B163,A164,B164,A165,B165,A166,B166,A167,B167,A168,B168,A169,B169,A170,B170,A171,B171,A172,B172,A173,B173,A174,B174,A175,B175,A176,B176,A177,B177,A178,B178,A179,B179,A180,B180,A181,B181,A182,B182,A183,B183,A184,B184,A185,B185,A186,B186,A187,B187,A188,B188,A189,B189,A190,B190,A191,B191,A192,B192,A193,B193,A194,B194,A195,B195,A196,B196,A197,B197,A198,B198,A199,B199,A200,B200,A201,B201,A202,B202,A203,B203,A204,B204,A205,B205,A206,B206,A207,B207,A208,B208,A209,B209,A210,B210,A211,B211,A212,B212,A213,B213,A214,B214,A215,B215,A216,B216,A217,B217,A218,B218,A219,B219,A220,B220,A221,B221,A222,B222,A223,B223,A224,B224,A225,B225,A226,B226,A227,B227,A228,B228,A229,B229,A230,B230,A231,B231,A232,B232,A233,B233,A234,B234,A235,B235,A236,B236,A237,B237,A238,B238,A239,B239,A240,B240,A241,B241,A242,B242,A243,B243,A244,B244,A245,B245,A246,B246,A247,B247,A248,B248,A249,B249,A250,B250,A251,B251,A252,B252,A253,B253,A254,B254,A255,B255,A256,B256,A257,B257,A258,B258,A259,B259,A260,B260,A261,B261,A262,B262,A263,B263,A264,B264,A265,B265,A266,B266,A267,B267,A268,B268,A269,B269,A270,B270,A271,B271,A272,B272,A273,B273,A274,B274,A275,B275,A276,B276,A277,B277,A278,B278,A279,B279,A280,B280,A281,B281,A282,B282,A283,B283,A284,B284,A285,B285,A286,B286,A287,B287,A288,B288,A289,B289,A290,B290,A291,B291,A292,B292,A293,B293,A294,B294,A295,B295,A296,B296,A297,B297,A298,B298,A299,B299,A300,B300,A301,B301,A302,B302,A303,B303,A304,B304,A305,B305,A306,B306,A307,B307,A308,B308,A309,B309,A310,B310,A311,B311,A312,B312,A313,B313,A314,B314,A315,B315,A316,B316,A317,B317,A318,B318,A319,B319,A320,B320,A321,B321,A322,B322,A323,B323,A324,B324,A325,B325,A326,B326,A327,B327,A328,B328,A329,B329,A330,B330,A331,B331,A332,B332,A333,B333,A334,B334,A335,B335,A336,B336,A337,B337,A338,B338,A339,B339,A340,B340,A341,B341,A342,B342,A343,B343,A344,B344,A345,B345,A346,B346,A347,B347,A348,B348,A349,B349,A350,B350,A351,B351,A352,B352,A353,B353,A354,B354,A355,B355,A356,B356,A357,B357,A358,B358,A359,B359,A360,B360,A361,B361,A362,B362,A363,B363,A364,B364,A365,B365,A366,B366,A367,B367,A368,B368,A369,B369,A370,B370,A371,B371,A372,B372,A373,B373,A374,B374,A375,B375,A376,B376,A377,B377,A378,B378,A379,B379,A380,B380,A381,B381,A382,B382,A383,B383,A384,B384,A385,B385,A386,B386,A387,B387,A388,B388,A389,B389,A390,B390,A391,B391,A392,B392,A393,B393,A394,B394,A395,B395,A396,B396,A397,B397,A398,B398,A399,B399,A400,B400,A401,B401,A402,B402,A403,B403,A404,B404,A405,B405,A406,B406,A407,B407,A408,B408,A409,B409,A410,B410,A411,B411,A412,B412,A413,B413,A414,B414,A415,B415,A416,B416,A417,B417,A418,B418,A419,B419,A420,B420,A421,B421,A422,B422,A423,B423,A424,B424,A425,B425,A426,B426,A427,B427,A428,B428,A429,B429,A430,B430,A431,B431,A432,B432,A433,B433,A434,B434,A435,B435,A436,B436,A437,B437,A438,B438,A439,B439,A440,B440,A441,B441,A442,B442,A443,B443,A444,B444,A445,B445,A446,B446,A447,B447,A448,B448,A449,B449,A450,B450,A451,B451,A452,B452,A453,B453,A454,B454,A455,B455,A456,B456,A457,B457,A458,B458,A459,B459,A460,B460,A461,B461,A462,B462,A463,B463,A464,B464,A465,B465,A466,B466,A467,B467,A468,B468,A469,B469,A470,B470,A471,B471,A472,B472,A473,B473,A474,B474,A475,B475,A476,B476,A477,B477,A478,B478,A479,B479,A480,B480,A481,B481,A482,B482,A483,B483,A484,B484,A485,B485,A486,B486,A487,B487,A488,B488,A489,B489,A490,B490,A491,B491,A492,B492,A493,B493,A494,B494,A495,B495,A496,B496,A497,B497,A498,B498,A499,B499,A500,B500,A501,B501,A502,B502,A503,B503,A504,B504,A505,B505,A506,B506,A507,B507,A508,B508,A509,B509,A510,B510,A511,B511,A512,B512,A513,B513,A514,B514,A515,B515,A516,B516,A517,B517,A518,B518,A519,B519,A520,B520,A521,B521,A522,B522,A523,B523,A524,B524,A525,B525,A526,B526,A527,B527,A528,B528,A529,B529,A530,B530,A531,B531,A532,B532,A533,B533,A534,B534,A535,B535,A536,B536,A537,B537,A538,B538,A539,B539,A540,B540,A541,B541,A542,B542,A543,B543,A544,B544,A545,B545,A546,B546,A547,B547,A548,B548,A549,B549,A550,B550,A551,B551,A552,B552,A553,B553,A554,B554,A555,B555,A556,B556,A557,B557,A558,B558,A559,B559,A560,B560,A561,B561,A562,B562,A563,B563,A564,B564,A565,B565,A566,B566,A567,B567,A568,B568,A569,B569,A570,B570,A571,B571,A572,B572,A573,B573,A574,B574,A575,B575,A576,B576,A577,B577,A578,B578,A579,B579,A580,B580,A581,B581,A582,B582,A583,B583,A584,B584,A585,B585,A586,B586,A587,B587,A588,B588,A589,B589,A590,B590,A591,B591,A592,B592,A593,B593,A594,B594,A595,B595,A596,B596,A597,B597,A598,B598,A599,B599,A600,B600,A601,B601,A602,B602,A603,B603,A604,B604,A605,B605,A606,B606,A607,B607,A608,B608,A609,B609,A610,B610,A611,B611,A612,B612,A613,B613,A614,B614,A615,B615,A616,B616,A617,B617,A618,B618,A619,B619,A620,B620,A621,B621,A622,B622,A623,B623,A624,B624,A625,B625,A626,B626,A627,B627,A628,B628,A629,B629,A630,B630,A631,B631,A632,B632,A633,B633,A634,B634,A635,B635,A636,B636,A637,B637,A638,B638,A639,B639,A640,B640,A641,B641,A642,B642,A643,B643,A644,B644,A645,B645,A646,B646,A647,B647,A648,B648,A649,B649,A650,B650,A651,B651,A652,B652,A653,B653,A654,B654,A655,B655,A656,B656,A657,B657,A658,B658,A659,B659,A660,B660,A661,B661,A662,B662,A663,B663,A664,B664,A665,B665,A666,B666,A667,B667,A668,B668,A669,B669,A670,B670,A671,B671,A672,B672,A673,B673,A674,B674,A675,B675,A676,B676,A677,B677,A678,B678,A679,B679,A680,B680,A681,B681,A682,B682,A683,B683,A684,B684,A685,B685,A686,B686,A687,B687,A688,B688,A689,B689,A690,B690,A691,B691,A692,B692,A693,B693,A694,B694,A695,B695,A696,B696,A697,B697,A698,B698,A699,B699,A700,B700,A701,B701,A702,B702,A703,B703,A704,B704,A705,B705,A706,B706,A707,B707,A708,B708,A709,B709,A710,B710,A711,B711,A712,B712,A713,B713,A714,B714,A715,B715,x1,x2,x3,x4,x5,x6,x7,x8,x9,x10,x11,x12,x13,x14,x15,x16,x17,x18,x19,x20,x21,x22,x23,x24,x25,x26,x27,x28,x29,x30,x31,x32,x33,x34,x35,x36,x37,x38,x39,x40,x41,x42,x43,x44,x45,x46,x47,x48,x49,x50;